\* Source Pyomo model name=unknown *\

max 
x32:
+1 x30
-1 x31

s.t.

c_e_x33_:
-1 x30
+6.5 x5
+2.9500000000000002 x6
+9 x7
+9 x8
+9 x9
= 0

c_e_x34_:
+1.55 x1
+2.3500000000000001 x2
+2.6000000000000001 x3
-1 x31
+2.1000000000000001 x4
= 0

c_e_x35_:
-1 x11
-1 x15
-1 x19
+1 x2
-1 x23
-1 x27
= 0

c_e_x36_:
-1 x12
-1 x16
-1 x20
-1 x24
-1 x28
+1 x3
= 0

c_e_x37_:
-1 x13
-1 x17
-1 x21
-1 x25
-1 x29
+1 x4
= 0

c_e_x38_:
+1 x1
-1 x10
-1 x14
-1 x18
-1 x22
-1 x26
= 0

c_u_x39_:
+1 x2
<= 50000

c_u_x40_:
+1 x3
<= 60000

c_u_x41_:
+1 x4
<= 30000

c_u_x42_:
+1 x1
<= 200000

c_e_x43_:
-1 x18
-1 x19
-1 x20
-1 x21
+1 x7
= 0

c_e_x44_:
-1 x22
-1 x23
-1 x24
-1 x25
+1 x8
= 0

c_e_x45_:
-1 x26
-1 x27
-1 x28
-1 x29
+1 x9
= 0

c_e_x46_:
-1 x10
-1 x11
-1 x12
-1 x13
+1 x5
= 0

c_e_x47_:
-1 x14
-1 x15
-1 x16
-1 x17
+1 x6
= 0

c_u_x48_:
+0.25 x18
+0.34999999999999998 x19
+0.75 x20
+0.55000000000000004 x21
-0.69999999999999996 x7
<= 0

c_u_x49_:
+0.25 x22
+0.34999999999999998 x23
+0.75 x24
+0.55000000000000004 x25
-0.69999999999999996 x8
<= 0

c_u_x50_:
+0.25 x26
+0.34999999999999998 x27
+0.75 x28
+0.55000000000000004 x29
-0.69999999999999996 x9
<= 0

c_u_x51_:
+0.25 x10
+0.34999999999999998 x11
+0.75 x12
+0.55000000000000004 x13
-0.69999999999999996 x5
<= 0

c_u_x52_:
+0.25 x14
+0.34999999999999998 x15
+0.75 x16
+0.55000000000000004 x17
-0.29999999999999999 x6
<= 0

c_u_x53_:
+0.080000000000000002 x18
+0.12 x19
+0.25 x20
+0.29999999999999999 x21
-0.20000000000000001 x7
<= 0

c_u_x54_:
+0.080000000000000002 x22
+0.12 x23
+0.25 x24
+0.29999999999999999 x25
-0.20000000000000001 x8
<= 0

c_u_x55_:
+0.080000000000000002 x26
+0.12 x27
+0.25 x28
+0.29999999999999999 x29
-0.20000000000000001 x9
<= 0

c_u_x56_:
+0.080000000000000002 x10
+0.12 x11
+0.25 x12
+0.29999999999999999 x13
-0.20000000000000001 x5
<= 0

c_u_x57_:
+0.080000000000000002 x14
+0.12 x15
+0.25 x16
+0.29999999999999999 x17
-1 x6
<= 0

c_u_x58_:
-15.699999999999999 x18
-13.5 x19
-15.300000000000001 x20
-11.5 x21
+10 x7
<= 0

c_u_x59_:
-15.699999999999999 x22
-13.5 x23
-15.300000000000001 x24
-11.5 x25
+10 x8
<= 0

c_u_x60_:
-15.699999999999999 x26
-13.5 x27
-15.300000000000001 x28
-11.5 x29
+10 x9
<= 0

c_u_x61_:
-15.699999999999999 x10
-13.5 x11
-15.300000000000001 x12
-11.5 x13
+10 x5
<= 0

c_u_x62_:
-15.699999999999999 x14
-13.5 x15
-15.300000000000001 x16
-11.5 x17
+10 x6
<= 0

c_u_x63_:
+15.699999999999999 x18
+13.5 x19
+15.300000000000001 x20
+11.5 x21
-15 x7
<= 0

c_u_x64_:
+15.699999999999999 x22
+13.5 x23
+15.300000000000001 x24
+11.5 x25
-15 x8
<= 0

c_u_x65_:
+15.699999999999999 x26
+13.5 x27
+15.300000000000001 x28
+11.5 x29
-15 x9
<= 0

c_u_x66_:
+15.699999999999999 x10
+13.5 x11
+15.300000000000001 x12
+11.5 x13
-15 x5
<= 0

c_u_x67_:
+15.699999999999999 x14
+13.5 x15
+15.300000000000001 x16
+11.5 x17
-15 x6
<= 0

c_u_x68_:
-1 x19
-1 x20
-1 x21
+0.75 x7
<= 0

c_u_x69_:
-1 x23
-1 x24
-1 x25
+0.75 x8
<= 0

c_u_x70_:
-1 x27
-1 x28
-1 x29
+0.75 x9
<= 0

c_u_x71_:
-1 x11
-1 x12
-1 x13
+0.75 x5
<= 0

c_u_x72_:
-1 x14
+0.75 x6
<= 0

c_u_x73_:
-1 x18
-1 x19
+0.84999999999999998 x7
<= 0

c_u_x74_:
-1 x24
-1 x25
+0.84999999999999998 x8
<= 0

c_u_x75_:
-1 x28
-1 x29
+0.84999999999999998 x9
<= 0

c_u_x76_:
-1 x19
-1 x21
+0.94999999999999996 x7
<= 0

c_u_x77_:
-1 x22
-1 x24
+0.94999999999999996 x8
<= 0

c_u_x78_:
-1 x27
-1 x29
+0.94999999999999996 x9
<= 0

c_e_ONE_VAR_CONSTANT: 
ONE_VAR_CONSTANT = 1.0

bounds
   0 <= x1 <= +inf
   0 <= x2 <= +inf
   0 <= x3 <= +inf
   0 <= x4 <= +inf
   0 <= x5 <= +inf
   0 <= x6 <= +inf
   0 <= x7 <= +inf
   0 <= x8 <= +inf
   0 <= x9 <= +inf
   0 <= x10 <= +inf
   0 <= x11 <= +inf
   0 <= x12 <= +inf
   0 <= x13 <= +inf
   0 <= x14 <= +inf
   0 <= x15 <= +inf
   0 <= x16 <= +inf
   0 <= x17 <= +inf
   0 <= x18 <= +inf
   0 <= x19 <= +inf
   0 <= x20 <= +inf
   0 <= x21 <= +inf
   0 <= x22 <= +inf
   0 <= x23 <= +inf
   0 <= x24 <= +inf
   0 <= x25 <= +inf
   0 <= x26 <= +inf
   0 <= x27 <= +inf
   0 <= x28 <= +inf
   0 <= x29 <= +inf
   0 <= x30 <= +inf
   0 <= x31 <= +inf
end
